-data: g10.mc
-node_num: 800
-set_a_count: 400
-set_b_count: 400
-current_cut_value: 806.0
-current_solution: set_a: {0, 1, 2, 3, 4, 5, 6, 8, 9, 10, 11, 13, 14, 15, 16, 19, 21, 23, 24, 26, 30, 31, 33, 34, 35, 37, 43, 44, 45, 48, 50, 51, 54, 55, 59, 60, 63, 64, 65, 67, 69, 71, 72, 73, 76, 78, 79, 80, 82, 86, 88, 89, 90, 93, 95, 98, 99, 101, 104, 105, 106, 110, 113, 114, 115, 120, 124, 126, 127, 130, 136, 137, 139, 140, 144, 145, 149, 150, 154, 159, 164, 165, 168, 171, 172, 173, 175, 176, 177, 180, 181, 182, 187, 189, 190, 191, 192, 193, 194, 197, 201, 203, 205, 206, 209, 214, 216, 217, 219, 220, 221, 223, 224, 226, 227, 230, 231, 234, 235, 239, 240, 242, 244, 245, 246, 250, 251, 252, 258, 261, 262, 267, 270, 271, 273, 275, 276, 278, 280, 281, 283, 286, 287, 288, 289, 290, 292, 294, 295, 300, 301, 303, 304, 305, 307, 309, 310, 311, 313, 314, 315, 317, 321, 322, 323, 325, 328, 329, 331, 332, 335, 336, 339, 340, 343, 344, 345, 347, 349, 350, 355, 356, 359, 360, 362, 363, 364, 366, 367, 370, 372, 375, 376, 378, 380, 382, 384, 385, 387, 389, 390, 391, 392, 398, 400, 405, 406, 408, 409, 410, 412, 413, 415, 416, 422, 425, 429, 430, 431, 432, 434, 436, 437, 440, 448, 451, 455, 456, 457, 458, 462, 466, 469, 470, 473, 474, 475, 476, 478, 480, 482, 484, 485, 486, 488, 489, 490, 491, 492, 495, 496, 497, 499, 501, 502, 505, 506, 507, 509, 510, 511, 515, 517, 518, 522, 523, 525, 526, 530, 531, 533, 535, 536, 540, 544, 545, 548, 550, 552, 554, 555, 559, 563, 564, 565, 566, 568, 569, 570, 572, 577, 579, 580, 582, 584, 585, 586, 588, 589, 590, 593, 594, 595, 597, 602, 603, 605, 607, 610, 612, 615, 616, 617, 619, 621, 624, 625, 626, 627, 631, 633, 636, 637, 638, 641, 642, 645, 647, 650, 651, 653, 654, 655, 657, 658, 661, 662, 664, 666, 668, 670, 672, 674, 676, 677, 678, 679, 682, 683, 684, 688, 689, 690, 692, 694, 695, 696, 698, 699, 706, 708, 712, 713, 715, 720, 722, 727, 728, 736, 737, 739, 744, 747, 748, 749, 750, 751, 752, 753, 755, 756, 758, 765, 768, 772, 773, 774, 775, 776, 778, 782, 783, 785, 786, 787, 790, 793, 795, 796, 799}
set_b: {7, 12, 17, 18, 20, 22, 25, 27, 28, 29, 32, 36, 38, 39, 40, 41, 42, 46, 47, 49, 52, 53, 56, 57, 58, 61, 62, 66, 68, 70, 74, 75, 77, 81, 83, 84, 85, 87, 91, 92, 94, 96, 97, 100, 102, 103, 107, 108, 109, 111, 112, 116, 117, 118, 119, 121, 122, 123, 125, 128, 129, 131, 132, 133, 134, 135, 138, 141, 142, 143, 146, 147, 148, 151, 152, 153, 155, 156, 157, 158, 160, 161, 162, 163, 166, 167, 169, 170, 174, 178, 179, 183, 184, 185, 186, 188, 195, 196, 198, 199, 200, 202, 204, 207, 208, 210, 211, 212, 213, 215, 218, 222, 225, 228, 229, 232, 233, 236, 237, 238, 241, 243, 247, 248, 249, 253, 254, 255, 256, 257, 259, 260, 263, 264, 265, 266, 268, 269, 272, 274, 277, 279, 282, 284, 285, 291, 293, 296, 297, 298, 299, 302, 306, 308, 312, 316, 318, 319, 320, 324, 326, 327, 330, 333, 334, 337, 338, 341, 342, 346, 348, 351, 352, 353, 354, 357, 358, 361, 365, 368, 369, 371, 373, 374, 377, 379, 381, 383, 386, 388, 393, 394, 395, 396, 397, 399, 401, 402, 403, 404, 407, 411, 414, 417, 418, 419, 420, 421, 423, 424, 426, 427, 428, 433, 435, 438, 439, 441, 442, 443, 444, 445, 446, 447, 449, 450, 452, 453, 454, 459, 460, 461, 463, 464, 465, 467, 468, 471, 472, 477, 479, 481, 483, 487, 493, 494, 498, 500, 503, 504, 508, 512, 513, 514, 516, 519, 520, 521, 524, 527, 528, 529, 532, 534, 537, 538, 539, 541, 542, 543, 546, 547, 549, 551, 553, 556, 557, 558, 560, 561, 562, 567, 571, 573, 574, 575, 576, 578, 581, 583, 587, 591, 592, 596, 598, 599, 600, 601, 604, 606, 608, 609, 611, 613, 614, 618, 620, 622, 623, 628, 629, 630, 632, 634, 635, 639, 640, 643, 644, 646, 648, 649, 652, 656, 659, 660, 663, 665, 667, 669, 671, 673, 675, 680, 681, 685, 686, 687, 691, 693, 697, 700, 701, 702, 703, 704, 705, 707, 709, 710, 711, 714, 716, 717, 718, 719, 721, 723, 724, 725, 726, 729, 730, 731, 732, 733, 734, 735, 738, 740, 741, 742, 743, 745, 746, 754, 757, 759, 760, 761, 762, 763, 764, 766, 767, 769, 770, 771, 777, 779, 780, 781, 784, 788, 789, 791, 792, 794, 797, 798}
